
;this file is automatically generated: Mon Oct 04 22:33:08 IST 2021

;declarations generated

(declare-fun oclExcludes ( Int Int) Bool)
(declare-fun type_8491b9c0_8e80_480b_87d1_11246030f476_Class21 ( Int) Bool)
(declare-fun type_8491b9c0_8e80_480b_87d1_11246030f476_Class22 ( Int) Bool)
(declare-fun type_8491b9c0_8e80_480b_87d1_11246030f476_Class23 ( Int) Bool)
(declare-fun type_8491b9c0_8e80_480b_87d1_11246030f476_Class24 ( Int) Bool)
(declare-fun type_8491b9c0_8e80_480b_87d1_11246030f476_Class25 ( Int) Bool)
(declare-fun type_8491b9c0_8e80_480b_87d1_11246030f476_Class0 ( Int) Bool)
(declare-fun type_8491b9c0_8e80_480b_87d1_11246030f476_Class26 ( Int) Bool)
(declare-fun type_8491b9c0_8e80_480b_87d1_11246030f476_Class27 ( Int) Bool)
(declare-fun type_8491b9c0_8e80_480b_87d1_11246030f476_Class28 ( Int) Bool)
(declare-fun type_8491b9c0_8e80_480b_87d1_11246030f476_Class29 ( Int) Bool)
(declare-fun type_8491b9c0_8e80_480b_87d1_11246030f476_Class9 ( Int) Bool)
(declare-fun type_8491b9c0_8e80_480b_87d1_11246030f476_Class3 ( Int) Bool)
(declare-fun type_8491b9c0_8e80_480b_87d1_11246030f476_Class4 ( Int) Bool)
(declare-fun type_8491b9c0_8e80_480b_87d1_11246030f476_Class1 ( Int) Bool)
(declare-fun type_8491b9c0_8e80_480b_87d1_11246030f476_Class2 ( Int) Bool)
(declare-fun type_8491b9c0_8e80_480b_87d1_11246030f476_Class7 ( Int) Bool)
(declare-fun type_8491b9c0_8e80_480b_87d1_11246030f476_Class8 ( Int) Bool)
(declare-fun type_8491b9c0_8e80_480b_87d1_11246030f476_Class5 ( Int) Bool)
(declare-fun type_8491b9c0_8e80_480b_87d1_11246030f476_Class30 ( Int) Bool)
(declare-fun type_8491b9c0_8e80_480b_87d1_11246030f476_Class31 ( Int) Bool)
(declare-fun type_8491b9c0_8e80_480b_87d1_11246030f476_Class6 ( Int) Bool)
(declare-fun type_8491b9c0_8e80_480b_87d1_11246030f476_Class10 ( Int) Bool)
(declare-fun type_8491b9c0_8e80_480b_87d1_11246030f476_Class11 ( Int) Bool)
(declare-fun type_8491b9c0_8e80_480b_87d1_11246030f476_Class12 ( Int) Bool)
(declare-fun type_8491b9c0_8e80_480b_87d1_11246030f476_Class13 ( Int) Bool)
(declare-fun Cardinality ( Int) Int)
(declare-fun type_8491b9c0_8e80_480b_87d1_11246030f476_Class14 ( Int) Bool)
(declare-fun type_8491b9c0_8e80_480b_87d1_11246030f476_Class15 ( Int) Bool)
(declare-fun type_8491b9c0_8e80_480b_87d1_11246030f476_Class16 ( Int) Bool)
(declare-fun type_8491b9c0_8e80_480b_87d1_11246030f476_Class17 ( Int) Bool)
(declare-fun type_8491b9c0_8e80_480b_87d1_11246030f476_Class18 ( Int) Bool)
(declare-fun type_8491b9c0_8e80_480b_87d1_11246030f476_Class19 ( Int) Bool)
(declare-fun class19_Class19IntAttr4 ( Int) Int)
(declare-fun type_8491b9c0_8e80_480b_87d1_11246030f476_Class20 ( Int) Bool)
(declare-fun type_8491b9c0_8e80_480b_87d1_11246030f476_Class43 ( Int) Bool)
(declare-fun type_8491b9c0_8e80_480b_87d1_11246030f476_Class44 ( Int) Bool)
(declare-fun type_8491b9c0_8e80_480b_87d1_11246030f476_Class45 ( Int) Bool)
(declare-fun type_8491b9c0_8e80_480b_87d1_11246030f476_Class46 ( Int) Bool)
(declare-fun type_8491b9c0_8e80_480b_87d1_11246030f476_Class47 ( Int) Bool)
(declare-fun type_8491b9c0_8e80_480b_87d1_11246030f476_Class48 ( Int) Bool)
(declare-fun type_8491b9c0_8e80_480b_87d1_11246030f476_Class49 ( Int) Bool)
(declare-fun type_8491b9c0_8e80_480b_87d1_11246030f476_Class50 ( Int) Bool)
(declare-fun type_8491b9c0_8e80_480b_87d1_11246030f476_Class51 ( Int) Bool)
(declare-fun type_8491b9c0_8e80_480b_87d1_11246030f476_Class52 ( Int) Bool)
(declare-fun type_8491b9c0_8e80_480b_87d1_11246030f476_Class53 ( Int) Bool)
(declare-fun type_8491b9c0_8e80_480b_87d1_11246030f476_Class32 ( Int) Bool)
(declare-fun type_8491b9c0_8e80_480b_87d1_11246030f476_Class33 ( Int) Bool)
(declare-fun type_8491b9c0_8e80_480b_87d1_11246030f476_Class34 ( Int) Bool)
(declare-fun type_8491b9c0_8e80_480b_87d1_11246030f476_Class35 ( Int) Bool)
(declare-fun type_8491b9c0_8e80_480b_87d1_11246030f476_Class36 ( Int) Bool)
(declare-fun type_8491b9c0_8e80_480b_87d1_11246030f476_Class37 ( Int) Bool)
(declare-fun type_8491b9c0_8e80_480b_87d1_11246030f476_Class38 ( Int) Bool)
(declare-fun type_8491b9c0_8e80_480b_87d1_11246030f476_Class39 ( Int) Bool)
(declare-fun obj_c6be63ea_ee62_4298_a390_7d075ceb37ac ( Int) Int)
(declare-fun type_8491b9c0_8e80_480b_87d1_11246030f476_Class40 ( Int) Bool)
(declare-fun type_8491b9c0_8e80_480b_87d1_11246030f476_Class41 ( Int) Bool)
(declare-fun type_8491b9c0_8e80_480b_87d1_11246030f476_Class42 ( Int) Bool)
(declare-fun oclSelect ( Int Bool) Int)
(declare-fun type_8491b9c0_8e80_480b_87d1_11246030f476_Class54 ( Int) Bool)
(declare-fun type_8491b9c0_8e80_480b_87d1_11246030f476_Class55 ( Int) Bool)
(declare-fun Enum0 ( Int) Int)
(declare-fun Enum1 ( Int) Int)
(declare-fun Enum2 ( Int) Int)
(declare-fun container_ ( Int) Int)
(declare-fun oclIncludes ( Int Int) Bool)
(declare-fun ObjAt ( Int Int) Int)

;formula(s) generated
(assert (! (forall ((v Int)) (=> (and (and (and (and (and (and (and (and (and ( type_8491b9c0_8e80_480b_87d1_11246030f476_Class19 v )  ( type_8491b9c0_8e80_480b_87d1_11246030f476_Class45 v ) ) ( type_8491b9c0_8e80_480b_87d1_11246030f476_Class12 v ) ) ( type_8491b9c0_8e80_480b_87d1_11246030f476_Class55 v ) ) ( type_8491b9c0_8e80_480b_87d1_11246030f476_Class33 v ) ) ( type_8491b9c0_8e80_480b_87d1_11246030f476_Class22 v ) ) ( type_8491b9c0_8e80_480b_87d1_11246030f476_Class29 v ) ) ( type_8491b9c0_8e80_480b_87d1_11246030f476_Class39 v ) ) ( type_8491b9c0_8e80_480b_87d1_11246030f476_Class50 v ) ) ( type_8491b9c0_8e80_480b_87d1_11246030f476_Class41 v ) ) (= ( class19_Class19IntAttr4 ( obj_c6be63ea_ee62_4298_a390_7d075ceb37ac v )  )  14))):named l0))
(assert (! (exists ((o Int)) ( type_8491b9c0_8e80_480b_87d1_11246030f476_Class0 ( obj_c6be63ea_ee62_4298_a390_7d075ceb37ac o )  ) ):named c0))
(assert (! (exists ((o Int)) (and (and (and (and (and ( type_8491b9c0_8e80_480b_87d1_11246030f476_Class1 ( obj_c6be63ea_ee62_4298_a390_7d075ceb37ac o )  )  ( type_8491b9c0_8e80_480b_87d1_11246030f476_Class45 ( obj_c6be63ea_ee62_4298_a390_7d075ceb37ac o )  ) ) ( type_8491b9c0_8e80_480b_87d1_11246030f476_Class12 ( obj_c6be63ea_ee62_4298_a390_7d075ceb37ac o )  ) ) ( type_8491b9c0_8e80_480b_87d1_11246030f476_Class33 ( obj_c6be63ea_ee62_4298_a390_7d075ceb37ac o )  ) ) ( type_8491b9c0_8e80_480b_87d1_11246030f476_Class22 ( obj_c6be63ea_ee62_4298_a390_7d075ceb37ac o )  ) ) ( type_8491b9c0_8e80_480b_87d1_11246030f476_Class39 ( obj_c6be63ea_ee62_4298_a390_7d075ceb37ac o )  ) )):named c1))
(assert (! (exists ((o Int)) (and (and (and (and (and (and (and (and (and ( type_8491b9c0_8e80_480b_87d1_11246030f476_Class10 ( obj_c6be63ea_ee62_4298_a390_7d075ceb37ac o )  )  ( type_8491b9c0_8e80_480b_87d1_11246030f476_Class45 ( obj_c6be63ea_ee62_4298_a390_7d075ceb37ac o )  ) ) ( type_8491b9c0_8e80_480b_87d1_11246030f476_Class12 ( obj_c6be63ea_ee62_4298_a390_7d075ceb37ac o )  ) ) ( type_8491b9c0_8e80_480b_87d1_11246030f476_Class55 ( obj_c6be63ea_ee62_4298_a390_7d075ceb37ac o )  ) ) ( type_8491b9c0_8e80_480b_87d1_11246030f476_Class33 ( obj_c6be63ea_ee62_4298_a390_7d075ceb37ac o )  ) ) ( type_8491b9c0_8e80_480b_87d1_11246030f476_Class22 ( obj_c6be63ea_ee62_4298_a390_7d075ceb37ac o )  ) ) ( type_8491b9c0_8e80_480b_87d1_11246030f476_Class29 ( obj_c6be63ea_ee62_4298_a390_7d075ceb37ac o )  ) ) ( type_8491b9c0_8e80_480b_87d1_11246030f476_Class39 ( obj_c6be63ea_ee62_4298_a390_7d075ceb37ac o )  ) ) ( type_8491b9c0_8e80_480b_87d1_11246030f476_Class50 ( obj_c6be63ea_ee62_4298_a390_7d075ceb37ac o )  ) ) ( type_8491b9c0_8e80_480b_87d1_11246030f476_Class41 ( obj_c6be63ea_ee62_4298_a390_7d075ceb37ac o )  ) )):named c2))
(assert (! (exists ((o Int)) ( type_8491b9c0_8e80_480b_87d1_11246030f476_Class11 ( obj_c6be63ea_ee62_4298_a390_7d075ceb37ac o )  ) ):named c3))
(assert (! (exists ((o Int)) (and (and (and ( type_8491b9c0_8e80_480b_87d1_11246030f476_Class12 ( obj_c6be63ea_ee62_4298_a390_7d075ceb37ac o )  )  ( type_8491b9c0_8e80_480b_87d1_11246030f476_Class33 ( obj_c6be63ea_ee62_4298_a390_7d075ceb37ac o )  ) ) ( type_8491b9c0_8e80_480b_87d1_11246030f476_Class22 ( obj_c6be63ea_ee62_4298_a390_7d075ceb37ac o )  ) ) ( type_8491b9c0_8e80_480b_87d1_11246030f476_Class39 ( obj_c6be63ea_ee62_4298_a390_7d075ceb37ac o )  ) )):named c4))
(assert (! (exists ((o Int)) (and (and (and (and (and (and (and (and (and ( type_8491b9c0_8e80_480b_87d1_11246030f476_Class13 ( obj_c6be63ea_ee62_4298_a390_7d075ceb37ac o )  )  ( type_8491b9c0_8e80_480b_87d1_11246030f476_Class45 ( obj_c6be63ea_ee62_4298_a390_7d075ceb37ac o )  ) ) ( type_8491b9c0_8e80_480b_87d1_11246030f476_Class12 ( obj_c6be63ea_ee62_4298_a390_7d075ceb37ac o )  ) ) ( type_8491b9c0_8e80_480b_87d1_11246030f476_Class55 ( obj_c6be63ea_ee62_4298_a390_7d075ceb37ac o )  ) ) ( type_8491b9c0_8e80_480b_87d1_11246030f476_Class33 ( obj_c6be63ea_ee62_4298_a390_7d075ceb37ac o )  ) ) ( type_8491b9c0_8e80_480b_87d1_11246030f476_Class22 ( obj_c6be63ea_ee62_4298_a390_7d075ceb37ac o )  ) ) ( type_8491b9c0_8e80_480b_87d1_11246030f476_Class29 ( obj_c6be63ea_ee62_4298_a390_7d075ceb37ac o )  ) ) ( type_8491b9c0_8e80_480b_87d1_11246030f476_Class39 ( obj_c6be63ea_ee62_4298_a390_7d075ceb37ac o )  ) ) ( type_8491b9c0_8e80_480b_87d1_11246030f476_Class50 ( obj_c6be63ea_ee62_4298_a390_7d075ceb37ac o )  ) ) ( type_8491b9c0_8e80_480b_87d1_11246030f476_Class41 ( obj_c6be63ea_ee62_4298_a390_7d075ceb37ac o )  ) )):named c5))
(assert (! (exists ((o Int)) (and (and (and (and (and (and (and (and (and ( type_8491b9c0_8e80_480b_87d1_11246030f476_Class14 ( obj_c6be63ea_ee62_4298_a390_7d075ceb37ac o )  )  ( type_8491b9c0_8e80_480b_87d1_11246030f476_Class45 ( obj_c6be63ea_ee62_4298_a390_7d075ceb37ac o )  ) ) ( type_8491b9c0_8e80_480b_87d1_11246030f476_Class12 ( obj_c6be63ea_ee62_4298_a390_7d075ceb37ac o )  ) ) ( type_8491b9c0_8e80_480b_87d1_11246030f476_Class55 ( obj_c6be63ea_ee62_4298_a390_7d075ceb37ac o )  ) ) ( type_8491b9c0_8e80_480b_87d1_11246030f476_Class33 ( obj_c6be63ea_ee62_4298_a390_7d075ceb37ac o )  ) ) ( type_8491b9c0_8e80_480b_87d1_11246030f476_Class22 ( obj_c6be63ea_ee62_4298_a390_7d075ceb37ac o )  ) ) ( type_8491b9c0_8e80_480b_87d1_11246030f476_Class29 ( obj_c6be63ea_ee62_4298_a390_7d075ceb37ac o )  ) ) ( type_8491b9c0_8e80_480b_87d1_11246030f476_Class39 ( obj_c6be63ea_ee62_4298_a390_7d075ceb37ac o )  ) ) ( type_8491b9c0_8e80_480b_87d1_11246030f476_Class50 ( obj_c6be63ea_ee62_4298_a390_7d075ceb37ac o )  ) ) ( type_8491b9c0_8e80_480b_87d1_11246030f476_Class41 ( obj_c6be63ea_ee62_4298_a390_7d075ceb37ac o )  ) )):named c6))
(assert (! (exists ((o Int)) ( type_8491b9c0_8e80_480b_87d1_11246030f476_Class15 ( obj_c6be63ea_ee62_4298_a390_7d075ceb37ac o )  ) ):named c7))
(assert (! (exists ((o Int)) (and (and (and (and (and ( type_8491b9c0_8e80_480b_87d1_11246030f476_Class16 ( obj_c6be63ea_ee62_4298_a390_7d075ceb37ac o )  )  ( type_8491b9c0_8e80_480b_87d1_11246030f476_Class45 ( obj_c6be63ea_ee62_4298_a390_7d075ceb37ac o )  ) ) ( type_8491b9c0_8e80_480b_87d1_11246030f476_Class12 ( obj_c6be63ea_ee62_4298_a390_7d075ceb37ac o )  ) ) ( type_8491b9c0_8e80_480b_87d1_11246030f476_Class33 ( obj_c6be63ea_ee62_4298_a390_7d075ceb37ac o )  ) ) ( type_8491b9c0_8e80_480b_87d1_11246030f476_Class22 ( obj_c6be63ea_ee62_4298_a390_7d075ceb37ac o )  ) ) ( type_8491b9c0_8e80_480b_87d1_11246030f476_Class39 ( obj_c6be63ea_ee62_4298_a390_7d075ceb37ac o )  ) )):named c8))
(assert (! (exists ((o Int)) ( type_8491b9c0_8e80_480b_87d1_11246030f476_Class17 ( obj_c6be63ea_ee62_4298_a390_7d075ceb37ac o )  ) ):named c9))
(assert (! (exists ((o Int)) (and (and (and ( type_8491b9c0_8e80_480b_87d1_11246030f476_Class18 ( obj_c6be63ea_ee62_4298_a390_7d075ceb37ac o )  )  ( type_8491b9c0_8e80_480b_87d1_11246030f476_Class25 ( obj_c6be63ea_ee62_4298_a390_7d075ceb37ac o )  ) ) ( type_8491b9c0_8e80_480b_87d1_11246030f476_Class24 ( obj_c6be63ea_ee62_4298_a390_7d075ceb37ac o )  ) ) ( type_8491b9c0_8e80_480b_87d1_11246030f476_Class39 ( obj_c6be63ea_ee62_4298_a390_7d075ceb37ac o )  ) )):named c10))
(assert (! (exists ((o Int)) (and (and (and (and (and (and (and (and (and ( type_8491b9c0_8e80_480b_87d1_11246030f476_Class19 ( obj_c6be63ea_ee62_4298_a390_7d075ceb37ac o )  )  ( type_8491b9c0_8e80_480b_87d1_11246030f476_Class45 ( obj_c6be63ea_ee62_4298_a390_7d075ceb37ac o )  ) ) ( type_8491b9c0_8e80_480b_87d1_11246030f476_Class12 ( obj_c6be63ea_ee62_4298_a390_7d075ceb37ac o )  ) ) ( type_8491b9c0_8e80_480b_87d1_11246030f476_Class55 ( obj_c6be63ea_ee62_4298_a390_7d075ceb37ac o )  ) ) ( type_8491b9c0_8e80_480b_87d1_11246030f476_Class33 ( obj_c6be63ea_ee62_4298_a390_7d075ceb37ac o )  ) ) ( type_8491b9c0_8e80_480b_87d1_11246030f476_Class22 ( obj_c6be63ea_ee62_4298_a390_7d075ceb37ac o )  ) ) ( type_8491b9c0_8e80_480b_87d1_11246030f476_Class29 ( obj_c6be63ea_ee62_4298_a390_7d075ceb37ac o )  ) ) ( type_8491b9c0_8e80_480b_87d1_11246030f476_Class39 ( obj_c6be63ea_ee62_4298_a390_7d075ceb37ac o )  ) ) ( type_8491b9c0_8e80_480b_87d1_11246030f476_Class50 ( obj_c6be63ea_ee62_4298_a390_7d075ceb37ac o )  ) ) ( type_8491b9c0_8e80_480b_87d1_11246030f476_Class41 ( obj_c6be63ea_ee62_4298_a390_7d075ceb37ac o )  ) )):named c11))
(assert (! (exists ((o Int)) ( type_8491b9c0_8e80_480b_87d1_11246030f476_Class2 ( obj_c6be63ea_ee62_4298_a390_7d075ceb37ac o )  ) ):named c12))
(assert (! (exists ((o Int)) ( type_8491b9c0_8e80_480b_87d1_11246030f476_Class20 ( obj_c6be63ea_ee62_4298_a390_7d075ceb37ac o )  ) ):named c13))
(assert (! (exists ((o Int)) (and (and (and (and (and (and (and (and (and ( type_8491b9c0_8e80_480b_87d1_11246030f476_Class21 ( obj_c6be63ea_ee62_4298_a390_7d075ceb37ac o )  )  ( type_8491b9c0_8e80_480b_87d1_11246030f476_Class45 ( obj_c6be63ea_ee62_4298_a390_7d075ceb37ac o )  ) ) ( type_8491b9c0_8e80_480b_87d1_11246030f476_Class12 ( obj_c6be63ea_ee62_4298_a390_7d075ceb37ac o )  ) ) ( type_8491b9c0_8e80_480b_87d1_11246030f476_Class33 ( obj_c6be63ea_ee62_4298_a390_7d075ceb37ac o )  ) ) ( type_8491b9c0_8e80_480b_87d1_11246030f476_Class22 ( obj_c6be63ea_ee62_4298_a390_7d075ceb37ac o )  ) ) ( type_8491b9c0_8e80_480b_87d1_11246030f476_Class16 ( obj_c6be63ea_ee62_4298_a390_7d075ceb37ac o )  ) ) ( type_8491b9c0_8e80_480b_87d1_11246030f476_Class29 ( obj_c6be63ea_ee62_4298_a390_7d075ceb37ac o )  ) ) ( type_8491b9c0_8e80_480b_87d1_11246030f476_Class39 ( obj_c6be63ea_ee62_4298_a390_7d075ceb37ac o )  ) ) ( type_8491b9c0_8e80_480b_87d1_11246030f476_Class41 ( obj_c6be63ea_ee62_4298_a390_7d075ceb37ac o )  ) ) ( type_8491b9c0_8e80_480b_87d1_11246030f476_Class51 ( obj_c6be63ea_ee62_4298_a390_7d075ceb37ac o )  ) )):named c14))
(assert (! (exists ((o Int)) (and ( type_8491b9c0_8e80_480b_87d1_11246030f476_Class22 ( obj_c6be63ea_ee62_4298_a390_7d075ceb37ac o )  )  ( type_8491b9c0_8e80_480b_87d1_11246030f476_Class39 ( obj_c6be63ea_ee62_4298_a390_7d075ceb37ac o )  ) )):named c15))
(assert (! (exists ((o Int)) (and (and (and (and ( type_8491b9c0_8e80_480b_87d1_11246030f476_Class23 ( obj_c6be63ea_ee62_4298_a390_7d075ceb37ac o )  )  ( type_8491b9c0_8e80_480b_87d1_11246030f476_Class25 ( obj_c6be63ea_ee62_4298_a390_7d075ceb37ac o )  ) ) ( type_8491b9c0_8e80_480b_87d1_11246030f476_Class24 ( obj_c6be63ea_ee62_4298_a390_7d075ceb37ac o )  ) ) ( type_8491b9c0_8e80_480b_87d1_11246030f476_Class39 ( obj_c6be63ea_ee62_4298_a390_7d075ceb37ac o )  ) ) ( type_8491b9c0_8e80_480b_87d1_11246030f476_Class5 ( obj_c6be63ea_ee62_4298_a390_7d075ceb37ac o )  ) )):named c16))
(assert (! (exists ((o Int)) (and (and ( type_8491b9c0_8e80_480b_87d1_11246030f476_Class24 ( obj_c6be63ea_ee62_4298_a390_7d075ceb37ac o )  )  ( type_8491b9c0_8e80_480b_87d1_11246030f476_Class25 ( obj_c6be63ea_ee62_4298_a390_7d075ceb37ac o )  ) ) ( type_8491b9c0_8e80_480b_87d1_11246030f476_Class39 ( obj_c6be63ea_ee62_4298_a390_7d075ceb37ac o )  ) )):named c17))
(assert (! (exists ((o Int)) (and ( type_8491b9c0_8e80_480b_87d1_11246030f476_Class25 ( obj_c6be63ea_ee62_4298_a390_7d075ceb37ac o )  )  ( type_8491b9c0_8e80_480b_87d1_11246030f476_Class39 ( obj_c6be63ea_ee62_4298_a390_7d075ceb37ac o )  ) )):named c18))
(assert (! (exists ((o Int)) ( type_8491b9c0_8e80_480b_87d1_11246030f476_Class26 ( obj_c6be63ea_ee62_4298_a390_7d075ceb37ac o )  ) ):named c19))
(assert (! (exists ((o Int)) ( type_8491b9c0_8e80_480b_87d1_11246030f476_Class27 ( obj_c6be63ea_ee62_4298_a390_7d075ceb37ac o )  ) ):named c20))
(assert (! (exists ((o Int)) (and (and (and (and (and (and (and ( type_8491b9c0_8e80_480b_87d1_11246030f476_Class28 ( obj_c6be63ea_ee62_4298_a390_7d075ceb37ac o )  )  ( type_8491b9c0_8e80_480b_87d1_11246030f476_Class45 ( obj_c6be63ea_ee62_4298_a390_7d075ceb37ac o )  ) ) ( type_8491b9c0_8e80_480b_87d1_11246030f476_Class12 ( obj_c6be63ea_ee62_4298_a390_7d075ceb37ac o )  ) ) ( type_8491b9c0_8e80_480b_87d1_11246030f476_Class33 ( obj_c6be63ea_ee62_4298_a390_7d075ceb37ac o )  ) ) ( type_8491b9c0_8e80_480b_87d1_11246030f476_Class22 ( obj_c6be63ea_ee62_4298_a390_7d075ceb37ac o )  ) ) ( type_8491b9c0_8e80_480b_87d1_11246030f476_Class29 ( obj_c6be63ea_ee62_4298_a390_7d075ceb37ac o )  ) ) ( type_8491b9c0_8e80_480b_87d1_11246030f476_Class39 ( obj_c6be63ea_ee62_4298_a390_7d075ceb37ac o )  ) ) ( type_8491b9c0_8e80_480b_87d1_11246030f476_Class41 ( obj_c6be63ea_ee62_4298_a390_7d075ceb37ac o )  ) )):named c21))
(assert (! (exists ((o Int)) (and (and (and (and (and (and ( type_8491b9c0_8e80_480b_87d1_11246030f476_Class29 ( obj_c6be63ea_ee62_4298_a390_7d075ceb37ac o )  )  ( type_8491b9c0_8e80_480b_87d1_11246030f476_Class45 ( obj_c6be63ea_ee62_4298_a390_7d075ceb37ac o )  ) ) ( type_8491b9c0_8e80_480b_87d1_11246030f476_Class12 ( obj_c6be63ea_ee62_4298_a390_7d075ceb37ac o )  ) ) ( type_8491b9c0_8e80_480b_87d1_11246030f476_Class33 ( obj_c6be63ea_ee62_4298_a390_7d075ceb37ac o )  ) ) ( type_8491b9c0_8e80_480b_87d1_11246030f476_Class22 ( obj_c6be63ea_ee62_4298_a390_7d075ceb37ac o )  ) ) ( type_8491b9c0_8e80_480b_87d1_11246030f476_Class39 ( obj_c6be63ea_ee62_4298_a390_7d075ceb37ac o )  ) ) ( type_8491b9c0_8e80_480b_87d1_11246030f476_Class41 ( obj_c6be63ea_ee62_4298_a390_7d075ceb37ac o )  ) )):named c22))
(assert (! (exists ((o Int)) (and (and (and ( type_8491b9c0_8e80_480b_87d1_11246030f476_Class3 ( obj_c6be63ea_ee62_4298_a390_7d075ceb37ac o )  )  ( type_8491b9c0_8e80_480b_87d1_11246030f476_Class25 ( obj_c6be63ea_ee62_4298_a390_7d075ceb37ac o )  ) ) ( type_8491b9c0_8e80_480b_87d1_11246030f476_Class24 ( obj_c6be63ea_ee62_4298_a390_7d075ceb37ac o )  ) ) ( type_8491b9c0_8e80_480b_87d1_11246030f476_Class39 ( obj_c6be63ea_ee62_4298_a390_7d075ceb37ac o )  ) )):named c23))
(assert (! (exists ((o Int)) (and ( type_8491b9c0_8e80_480b_87d1_11246030f476_Class30 ( obj_c6be63ea_ee62_4298_a390_7d075ceb37ac o )  )  ( type_8491b9c0_8e80_480b_87d1_11246030f476_Class39 ( obj_c6be63ea_ee62_4298_a390_7d075ceb37ac o )  ) )):named c24))
(assert (! (exists ((o Int)) (and (and (and (and (and ( type_8491b9c0_8e80_480b_87d1_11246030f476_Class31 ( obj_c6be63ea_ee62_4298_a390_7d075ceb37ac o )  )  ( type_8491b9c0_8e80_480b_87d1_11246030f476_Class45 ( obj_c6be63ea_ee62_4298_a390_7d075ceb37ac o )  ) ) ( type_8491b9c0_8e80_480b_87d1_11246030f476_Class12 ( obj_c6be63ea_ee62_4298_a390_7d075ceb37ac o )  ) ) ( type_8491b9c0_8e80_480b_87d1_11246030f476_Class33 ( obj_c6be63ea_ee62_4298_a390_7d075ceb37ac o )  ) ) ( type_8491b9c0_8e80_480b_87d1_11246030f476_Class22 ( obj_c6be63ea_ee62_4298_a390_7d075ceb37ac o )  ) ) ( type_8491b9c0_8e80_480b_87d1_11246030f476_Class39 ( obj_c6be63ea_ee62_4298_a390_7d075ceb37ac o )  ) )):named c25))
(assert (! (exists ((o Int)) ( type_8491b9c0_8e80_480b_87d1_11246030f476_Class32 ( obj_c6be63ea_ee62_4298_a390_7d075ceb37ac o )  ) ):named c26))
(assert (! (exists ((o Int)) (and (and ( type_8491b9c0_8e80_480b_87d1_11246030f476_Class33 ( obj_c6be63ea_ee62_4298_a390_7d075ceb37ac o )  )  ( type_8491b9c0_8e80_480b_87d1_11246030f476_Class22 ( obj_c6be63ea_ee62_4298_a390_7d075ceb37ac o )  ) ) ( type_8491b9c0_8e80_480b_87d1_11246030f476_Class39 ( obj_c6be63ea_ee62_4298_a390_7d075ceb37ac o )  ) )):named c27))
(assert (! (exists ((o Int)) (and (and (and ( type_8491b9c0_8e80_480b_87d1_11246030f476_Class34 ( obj_c6be63ea_ee62_4298_a390_7d075ceb37ac o )  )  ( type_8491b9c0_8e80_480b_87d1_11246030f476_Class25 ( obj_c6be63ea_ee62_4298_a390_7d075ceb37ac o )  ) ) ( type_8491b9c0_8e80_480b_87d1_11246030f476_Class24 ( obj_c6be63ea_ee62_4298_a390_7d075ceb37ac o )  ) ) ( type_8491b9c0_8e80_480b_87d1_11246030f476_Class39 ( obj_c6be63ea_ee62_4298_a390_7d075ceb37ac o )  ) )):named c28))
(assert (! (exists ((o Int)) (and (and ( type_8491b9c0_8e80_480b_87d1_11246030f476_Class35 ( obj_c6be63ea_ee62_4298_a390_7d075ceb37ac o )  )  ( type_8491b9c0_8e80_480b_87d1_11246030f476_Class39 ( obj_c6be63ea_ee62_4298_a390_7d075ceb37ac o )  ) ) ( type_8491b9c0_8e80_480b_87d1_11246030f476_Class30 ( obj_c6be63ea_ee62_4298_a390_7d075ceb37ac o )  ) )):named c29))
(assert (! (exists ((o Int)) ( type_8491b9c0_8e80_480b_87d1_11246030f476_Class36 ( obj_c6be63ea_ee62_4298_a390_7d075ceb37ac o )  ) ):named c30))
(assert (! (exists ((o Int)) ( type_8491b9c0_8e80_480b_87d1_11246030f476_Class37 ( obj_c6be63ea_ee62_4298_a390_7d075ceb37ac o )  ) ):named c31))
(assert (! (exists ((o Int)) ( type_8491b9c0_8e80_480b_87d1_11246030f476_Class38 ( obj_c6be63ea_ee62_4298_a390_7d075ceb37ac o )  ) ):named c32))
(assert (! (exists ((o Int)) ( type_8491b9c0_8e80_480b_87d1_11246030f476_Class39 ( obj_c6be63ea_ee62_4298_a390_7d075ceb37ac o )  ) ):named c33))
(assert (! (exists ((o Int)) ( type_8491b9c0_8e80_480b_87d1_11246030f476_Class4 ( obj_c6be63ea_ee62_4298_a390_7d075ceb37ac o )  ) ):named c34))
(assert (! (exists ((o Int)) (and (and (and (and (and (and (and (and (and ( type_8491b9c0_8e80_480b_87d1_11246030f476_Class40 ( obj_c6be63ea_ee62_4298_a390_7d075ceb37ac o )  )  ( type_8491b9c0_8e80_480b_87d1_11246030f476_Class45 ( obj_c6be63ea_ee62_4298_a390_7d075ceb37ac o )  ) ) ( type_8491b9c0_8e80_480b_87d1_11246030f476_Class12 ( obj_c6be63ea_ee62_4298_a390_7d075ceb37ac o )  ) ) ( type_8491b9c0_8e80_480b_87d1_11246030f476_Class55 ( obj_c6be63ea_ee62_4298_a390_7d075ceb37ac o )  ) ) ( type_8491b9c0_8e80_480b_87d1_11246030f476_Class33 ( obj_c6be63ea_ee62_4298_a390_7d075ceb37ac o )  ) ) ( type_8491b9c0_8e80_480b_87d1_11246030f476_Class22 ( obj_c6be63ea_ee62_4298_a390_7d075ceb37ac o )  ) ) ( type_8491b9c0_8e80_480b_87d1_11246030f476_Class29 ( obj_c6be63ea_ee62_4298_a390_7d075ceb37ac o )  ) ) ( type_8491b9c0_8e80_480b_87d1_11246030f476_Class39 ( obj_c6be63ea_ee62_4298_a390_7d075ceb37ac o )  ) ) ( type_8491b9c0_8e80_480b_87d1_11246030f476_Class50 ( obj_c6be63ea_ee62_4298_a390_7d075ceb37ac o )  ) ) ( type_8491b9c0_8e80_480b_87d1_11246030f476_Class41 ( obj_c6be63ea_ee62_4298_a390_7d075ceb37ac o )  ) )):named c35))
(assert (! (exists ((o Int)) (and (and (and (and (and ( type_8491b9c0_8e80_480b_87d1_11246030f476_Class41 ( obj_c6be63ea_ee62_4298_a390_7d075ceb37ac o )  )  ( type_8491b9c0_8e80_480b_87d1_11246030f476_Class45 ( obj_c6be63ea_ee62_4298_a390_7d075ceb37ac o )  ) ) ( type_8491b9c0_8e80_480b_87d1_11246030f476_Class12 ( obj_c6be63ea_ee62_4298_a390_7d075ceb37ac o )  ) ) ( type_8491b9c0_8e80_480b_87d1_11246030f476_Class33 ( obj_c6be63ea_ee62_4298_a390_7d075ceb37ac o )  ) ) ( type_8491b9c0_8e80_480b_87d1_11246030f476_Class22 ( obj_c6be63ea_ee62_4298_a390_7d075ceb37ac o )  ) ) ( type_8491b9c0_8e80_480b_87d1_11246030f476_Class39 ( obj_c6be63ea_ee62_4298_a390_7d075ceb37ac o )  ) )):named c36))
(assert (! (exists ((o Int)) (and ( type_8491b9c0_8e80_480b_87d1_11246030f476_Class42 ( obj_c6be63ea_ee62_4298_a390_7d075ceb37ac o )  )  ( type_8491b9c0_8e80_480b_87d1_11246030f476_Class39 ( obj_c6be63ea_ee62_4298_a390_7d075ceb37ac o )  ) )):named c37))
(assert (! (exists ((o Int)) ( type_8491b9c0_8e80_480b_87d1_11246030f476_Class43 ( obj_c6be63ea_ee62_4298_a390_7d075ceb37ac o )  ) ):named c38))
(assert (! (exists ((o Int)) (and (and (and (and (and (and (and ( type_8491b9c0_8e80_480b_87d1_11246030f476_Class44 ( obj_c6be63ea_ee62_4298_a390_7d075ceb37ac o )  )  ( type_8491b9c0_8e80_480b_87d1_11246030f476_Class45 ( obj_c6be63ea_ee62_4298_a390_7d075ceb37ac o )  ) ) ( type_8491b9c0_8e80_480b_87d1_11246030f476_Class12 ( obj_c6be63ea_ee62_4298_a390_7d075ceb37ac o )  ) ) ( type_8491b9c0_8e80_480b_87d1_11246030f476_Class33 ( obj_c6be63ea_ee62_4298_a390_7d075ceb37ac o )  ) ) ( type_8491b9c0_8e80_480b_87d1_11246030f476_Class22 ( obj_c6be63ea_ee62_4298_a390_7d075ceb37ac o )  ) ) ( type_8491b9c0_8e80_480b_87d1_11246030f476_Class29 ( obj_c6be63ea_ee62_4298_a390_7d075ceb37ac o )  ) ) ( type_8491b9c0_8e80_480b_87d1_11246030f476_Class39 ( obj_c6be63ea_ee62_4298_a390_7d075ceb37ac o )  ) ) ( type_8491b9c0_8e80_480b_87d1_11246030f476_Class41 ( obj_c6be63ea_ee62_4298_a390_7d075ceb37ac o )  ) )):named c39))
(assert (! (exists ((o Int)) (and (and (and (and ( type_8491b9c0_8e80_480b_87d1_11246030f476_Class45 ( obj_c6be63ea_ee62_4298_a390_7d075ceb37ac o )  )  ( type_8491b9c0_8e80_480b_87d1_11246030f476_Class12 ( obj_c6be63ea_ee62_4298_a390_7d075ceb37ac o )  ) ) ( type_8491b9c0_8e80_480b_87d1_11246030f476_Class33 ( obj_c6be63ea_ee62_4298_a390_7d075ceb37ac o )  ) ) ( type_8491b9c0_8e80_480b_87d1_11246030f476_Class22 ( obj_c6be63ea_ee62_4298_a390_7d075ceb37ac o )  ) ) ( type_8491b9c0_8e80_480b_87d1_11246030f476_Class39 ( obj_c6be63ea_ee62_4298_a390_7d075ceb37ac o )  ) )):named c40))
(assert (! (exists ((o Int)) (and (and ( type_8491b9c0_8e80_480b_87d1_11246030f476_Class46 ( obj_c6be63ea_ee62_4298_a390_7d075ceb37ac o )  )  ( type_8491b9c0_8e80_480b_87d1_11246030f476_Class39 ( obj_c6be63ea_ee62_4298_a390_7d075ceb37ac o )  ) ) ( type_8491b9c0_8e80_480b_87d1_11246030f476_Class5 ( obj_c6be63ea_ee62_4298_a390_7d075ceb37ac o )  ) )):named c41))
(assert (! (exists ((o Int)) ( type_8491b9c0_8e80_480b_87d1_11246030f476_Class47 ( obj_c6be63ea_ee62_4298_a390_7d075ceb37ac o )  ) ):named c42))
(assert (! (exists ((o Int)) (and (and (and (and (and (and (and (and (and ( type_8491b9c0_8e80_480b_87d1_11246030f476_Class48 ( obj_c6be63ea_ee62_4298_a390_7d075ceb37ac o )  )  ( type_8491b9c0_8e80_480b_87d1_11246030f476_Class45 ( obj_c6be63ea_ee62_4298_a390_7d075ceb37ac o )  ) ) ( type_8491b9c0_8e80_480b_87d1_11246030f476_Class12 ( obj_c6be63ea_ee62_4298_a390_7d075ceb37ac o )  ) ) ( type_8491b9c0_8e80_480b_87d1_11246030f476_Class55 ( obj_c6be63ea_ee62_4298_a390_7d075ceb37ac o )  ) ) ( type_8491b9c0_8e80_480b_87d1_11246030f476_Class33 ( obj_c6be63ea_ee62_4298_a390_7d075ceb37ac o )  ) ) ( type_8491b9c0_8e80_480b_87d1_11246030f476_Class22 ( obj_c6be63ea_ee62_4298_a390_7d075ceb37ac o )  ) ) ( type_8491b9c0_8e80_480b_87d1_11246030f476_Class29 ( obj_c6be63ea_ee62_4298_a390_7d075ceb37ac o )  ) ) ( type_8491b9c0_8e80_480b_87d1_11246030f476_Class39 ( obj_c6be63ea_ee62_4298_a390_7d075ceb37ac o )  ) ) ( type_8491b9c0_8e80_480b_87d1_11246030f476_Class50 ( obj_c6be63ea_ee62_4298_a390_7d075ceb37ac o )  ) ) ( type_8491b9c0_8e80_480b_87d1_11246030f476_Class41 ( obj_c6be63ea_ee62_4298_a390_7d075ceb37ac o )  ) )):named c43))
(assert (! (exists ((o Int)) (and (and (and (and (and (and (and (and (and ( type_8491b9c0_8e80_480b_87d1_11246030f476_Class49 ( obj_c6be63ea_ee62_4298_a390_7d075ceb37ac o )  )  ( type_8491b9c0_8e80_480b_87d1_11246030f476_Class45 ( obj_c6be63ea_ee62_4298_a390_7d075ceb37ac o )  ) ) ( type_8491b9c0_8e80_480b_87d1_11246030f476_Class12 ( obj_c6be63ea_ee62_4298_a390_7d075ceb37ac o )  ) ) ( type_8491b9c0_8e80_480b_87d1_11246030f476_Class55 ( obj_c6be63ea_ee62_4298_a390_7d075ceb37ac o )  ) ) ( type_8491b9c0_8e80_480b_87d1_11246030f476_Class33 ( obj_c6be63ea_ee62_4298_a390_7d075ceb37ac o )  ) ) ( type_8491b9c0_8e80_480b_87d1_11246030f476_Class22 ( obj_c6be63ea_ee62_4298_a390_7d075ceb37ac o )  ) ) ( type_8491b9c0_8e80_480b_87d1_11246030f476_Class29 ( obj_c6be63ea_ee62_4298_a390_7d075ceb37ac o )  ) ) ( type_8491b9c0_8e80_480b_87d1_11246030f476_Class39 ( obj_c6be63ea_ee62_4298_a390_7d075ceb37ac o )  ) ) ( type_8491b9c0_8e80_480b_87d1_11246030f476_Class50 ( obj_c6be63ea_ee62_4298_a390_7d075ceb37ac o )  ) ) ( type_8491b9c0_8e80_480b_87d1_11246030f476_Class41 ( obj_c6be63ea_ee62_4298_a390_7d075ceb37ac o )  ) )):named c44))
(assert (! (exists ((o Int)) (and ( type_8491b9c0_8e80_480b_87d1_11246030f476_Class5 ( obj_c6be63ea_ee62_4298_a390_7d075ceb37ac o )  )  ( type_8491b9c0_8e80_480b_87d1_11246030f476_Class39 ( obj_c6be63ea_ee62_4298_a390_7d075ceb37ac o )  ) )):named c45))
(assert (! (exists ((o Int)) (and (and (and (and (and (and (and (and ( type_8491b9c0_8e80_480b_87d1_11246030f476_Class50 ( obj_c6be63ea_ee62_4298_a390_7d075ceb37ac o )  )  ( type_8491b9c0_8e80_480b_87d1_11246030f476_Class45 ( obj_c6be63ea_ee62_4298_a390_7d075ceb37ac o )  ) ) ( type_8491b9c0_8e80_480b_87d1_11246030f476_Class12 ( obj_c6be63ea_ee62_4298_a390_7d075ceb37ac o )  ) ) ( type_8491b9c0_8e80_480b_87d1_11246030f476_Class55 ( obj_c6be63ea_ee62_4298_a390_7d075ceb37ac o )  ) ) ( type_8491b9c0_8e80_480b_87d1_11246030f476_Class33 ( obj_c6be63ea_ee62_4298_a390_7d075ceb37ac o )  ) ) ( type_8491b9c0_8e80_480b_87d1_11246030f476_Class22 ( obj_c6be63ea_ee62_4298_a390_7d075ceb37ac o )  ) ) ( type_8491b9c0_8e80_480b_87d1_11246030f476_Class29 ( obj_c6be63ea_ee62_4298_a390_7d075ceb37ac o )  ) ) ( type_8491b9c0_8e80_480b_87d1_11246030f476_Class39 ( obj_c6be63ea_ee62_4298_a390_7d075ceb37ac o )  ) ) ( type_8491b9c0_8e80_480b_87d1_11246030f476_Class41 ( obj_c6be63ea_ee62_4298_a390_7d075ceb37ac o )  ) )):named c46))
(assert (! (exists ((o Int)) (and (and (and (and (and (and ( type_8491b9c0_8e80_480b_87d1_11246030f476_Class51 ( obj_c6be63ea_ee62_4298_a390_7d075ceb37ac o )  )  ( type_8491b9c0_8e80_480b_87d1_11246030f476_Class45 ( obj_c6be63ea_ee62_4298_a390_7d075ceb37ac o )  ) ) ( type_8491b9c0_8e80_480b_87d1_11246030f476_Class12 ( obj_c6be63ea_ee62_4298_a390_7d075ceb37ac o )  ) ) ( type_8491b9c0_8e80_480b_87d1_11246030f476_Class33 ( obj_c6be63ea_ee62_4298_a390_7d075ceb37ac o )  ) ) ( type_8491b9c0_8e80_480b_87d1_11246030f476_Class22 ( obj_c6be63ea_ee62_4298_a390_7d075ceb37ac o )  ) ) ( type_8491b9c0_8e80_480b_87d1_11246030f476_Class16 ( obj_c6be63ea_ee62_4298_a390_7d075ceb37ac o )  ) ) ( type_8491b9c0_8e80_480b_87d1_11246030f476_Class39 ( obj_c6be63ea_ee62_4298_a390_7d075ceb37ac o )  ) )):named c47))
(assert (! (exists ((o Int)) (and (and (and (and (and ( type_8491b9c0_8e80_480b_87d1_11246030f476_Class52 ( obj_c6be63ea_ee62_4298_a390_7d075ceb37ac o )  )  ( type_8491b9c0_8e80_480b_87d1_11246030f476_Class45 ( obj_c6be63ea_ee62_4298_a390_7d075ceb37ac o )  ) ) ( type_8491b9c0_8e80_480b_87d1_11246030f476_Class12 ( obj_c6be63ea_ee62_4298_a390_7d075ceb37ac o )  ) ) ( type_8491b9c0_8e80_480b_87d1_11246030f476_Class33 ( obj_c6be63ea_ee62_4298_a390_7d075ceb37ac o )  ) ) ( type_8491b9c0_8e80_480b_87d1_11246030f476_Class22 ( obj_c6be63ea_ee62_4298_a390_7d075ceb37ac o )  ) ) ( type_8491b9c0_8e80_480b_87d1_11246030f476_Class39 ( obj_c6be63ea_ee62_4298_a390_7d075ceb37ac o )  ) )):named c48))
(assert (! (exists ((o Int)) ( type_8491b9c0_8e80_480b_87d1_11246030f476_Class53 ( obj_c6be63ea_ee62_4298_a390_7d075ceb37ac o )  ) ):named c49))
(assert (! (exists ((o Int)) ( type_8491b9c0_8e80_480b_87d1_11246030f476_Class54 ( obj_c6be63ea_ee62_4298_a390_7d075ceb37ac o )  ) ):named c50))
(assert (! (exists ((o Int)) (and (and (and (and (and (and (and ( type_8491b9c0_8e80_480b_87d1_11246030f476_Class55 ( obj_c6be63ea_ee62_4298_a390_7d075ceb37ac o )  )  ( type_8491b9c0_8e80_480b_87d1_11246030f476_Class45 ( obj_c6be63ea_ee62_4298_a390_7d075ceb37ac o )  ) ) ( type_8491b9c0_8e80_480b_87d1_11246030f476_Class12 ( obj_c6be63ea_ee62_4298_a390_7d075ceb37ac o )  ) ) ( type_8491b9c0_8e80_480b_87d1_11246030f476_Class33 ( obj_c6be63ea_ee62_4298_a390_7d075ceb37ac o )  ) ) ( type_8491b9c0_8e80_480b_87d1_11246030f476_Class22 ( obj_c6be63ea_ee62_4298_a390_7d075ceb37ac o )  ) ) ( type_8491b9c0_8e80_480b_87d1_11246030f476_Class29 ( obj_c6be63ea_ee62_4298_a390_7d075ceb37ac o )  ) ) ( type_8491b9c0_8e80_480b_87d1_11246030f476_Class39 ( obj_c6be63ea_ee62_4298_a390_7d075ceb37ac o )  ) ) ( type_8491b9c0_8e80_480b_87d1_11246030f476_Class41 ( obj_c6be63ea_ee62_4298_a390_7d075ceb37ac o )  ) )):named c51))
(assert (! (exists ((o Int)) ( type_8491b9c0_8e80_480b_87d1_11246030f476_Class6 ( obj_c6be63ea_ee62_4298_a390_7d075ceb37ac o )  ) ):named c52))
(assert (! (exists ((o Int)) (and (and (and (and (and (and (and (and (and ( type_8491b9c0_8e80_480b_87d1_11246030f476_Class7 ( obj_c6be63ea_ee62_4298_a390_7d075ceb37ac o )  )  ( type_8491b9c0_8e80_480b_87d1_11246030f476_Class45 ( obj_c6be63ea_ee62_4298_a390_7d075ceb37ac o )  ) ) ( type_8491b9c0_8e80_480b_87d1_11246030f476_Class12 ( obj_c6be63ea_ee62_4298_a390_7d075ceb37ac o )  ) ) ( type_8491b9c0_8e80_480b_87d1_11246030f476_Class55 ( obj_c6be63ea_ee62_4298_a390_7d075ceb37ac o )  ) ) ( type_8491b9c0_8e80_480b_87d1_11246030f476_Class33 ( obj_c6be63ea_ee62_4298_a390_7d075ceb37ac o )  ) ) ( type_8491b9c0_8e80_480b_87d1_11246030f476_Class22 ( obj_c6be63ea_ee62_4298_a390_7d075ceb37ac o )  ) ) ( type_8491b9c0_8e80_480b_87d1_11246030f476_Class29 ( obj_c6be63ea_ee62_4298_a390_7d075ceb37ac o )  ) ) ( type_8491b9c0_8e80_480b_87d1_11246030f476_Class39 ( obj_c6be63ea_ee62_4298_a390_7d075ceb37ac o )  ) ) ( type_8491b9c0_8e80_480b_87d1_11246030f476_Class50 ( obj_c6be63ea_ee62_4298_a390_7d075ceb37ac o )  ) ) ( type_8491b9c0_8e80_480b_87d1_11246030f476_Class41 ( obj_c6be63ea_ee62_4298_a390_7d075ceb37ac o )  ) )):named c53))
(assert (! (exists ((o Int)) (and ( type_8491b9c0_8e80_480b_87d1_11246030f476_Class8 ( obj_c6be63ea_ee62_4298_a390_7d075ceb37ac o )  )  ( type_8491b9c0_8e80_480b_87d1_11246030f476_Class39 ( obj_c6be63ea_ee62_4298_a390_7d075ceb37ac o )  ) )):named c54))
(assert (! (exists ((o Int)) ( type_8491b9c0_8e80_480b_87d1_11246030f476_Class9 ( obj_c6be63ea_ee62_4298_a390_7d075ceb37ac o )  ) ):named c55))

 ;end of formula 